instances/knapsack/discrete/knapsack_90_13.lp
\ Model knapsack_90_13
\ LP format - for model browsing. Use MPS format to capture full model detail.
\ Signature: 0xc29ff4c0dcb79651
Minimize
  - 45 x[0] - 42 x[1] - 35 x[2] - 27 x[3] - 69 x[4] - 84 x[5] - 77 x[6]
   - 35 x[7] - 34 x[8] - 18 x[9] - 90 x[10] - 46 x[11] - 58 x[12]
   - 21 x[13] - 70 x[14] - 99 x[15] - x[16] - 69 x[17] - 38 x[18] - x[19]
   - 93 x[20] - 22 x[21] - 59 x[22] - 39 x[23] - 100 x[24] - 66 x[25]
   - 11 x[26] - 43 x[27] - 61 x[28] - 32 x[29] - 60 x[30] - 19 x[31]
   - 31 x[32] - 18 x[33] - 3 x[34] - 72 x[35] - 72 x[36] - 34 x[37]
   - 54 x[38] - 83 x[39] - 39 x[40] - 37 x[41] - 89 x[42] - 46 x[43]
   - 86 x[44] - 6 x[45] - 16 x[46] - 40 x[47] - 64 x[48] - 17 x[49]
   - 38 x[50] - 10 x[51] - 50 x[52] - 80 x[53] - 55 x[54] - 57 x[55]
   - 98 x[56] - 39 x[57] - 31 x[58] - 98 x[59] - 55 x[60] - 77 x[61]
   - 21 x[62] - 73 x[63] - 66 x[64] - 52 x[65] - 60 x[66] - 45 x[67]
   - 8 x[68] - 89 x[69] - 52 x[70] - 98 x[71] - 36 x[72] - 77 x[73]
   - 90 x[74] - 49 x[75] - 73 x[76] - 100 x[77] - 27 x[78] - 55 x[79]
   - 30 x[80] - 89 x[81] - 81 x[82] - 13 x[83] - 96 x[84] - 100 x[85]
   - 33 x[86] - 2 x[87] - 87 x[88] - 94 x[89]
Subject To
 primal_upper: 31 x[0] + 47 x[1] + 25 x[2] + 58 x[3] + 67 x[4] + 37 x[5]
   + 92 x[6] + 99 x[7] + 28 x[8] + 89 x[9] + 19 x[10] + 38 x[11] + 15 x[12]
   + 43 x[13] + 84 x[14] + 8 x[15] + 96 x[16] + 59 x[17] + 88 x[18]
   + 49 x[19] + 76 x[20] + 59 x[21] + 43 x[22] + 18 x[23] + 4 x[24]
   + 43 x[25] + 37 x[26] + 43 x[27] + 33 x[28] + 10 x[29] + 49 x[30]
   + 71 x[31] + 55 x[32] + 76 x[33] + 83 x[34] + 36 x[35] + 27 x[36]
   + 48 x[37] + 43 x[38] + 98 x[39] + 62 x[40] + 53 x[41] + 65 x[42]
   + 17 x[43] + 62 x[44] + 50 x[45] + 13 x[46] + 73 x[47] + 50 x[48]
   + 27 x[49] + 30 x[50] + 55 x[51] + 20 x[52] + 39 x[53] + 16 x[54]
   + 71 x[55] + 68 x[56] + 94 x[57] + 27 x[58] + 77 x[59] + 44 x[60]
   + 10 x[61] + 7 x[62] + 58 x[63] + 43 x[64] + 31 x[65] + 76 x[66]
   + 54 x[67] + 35 x[68] + 93 x[69] + 57 x[70] + 73 x[71] + 53 x[72]
   + 62 x[73] + 35 x[74] + 16 x[75] + 54 x[76] + 70 x[77] + 56 x[78]
   + 30 x[79] + 93 x[80] + 89 x[81] + 66 x[82] + 17 x[83] + 97 x[84]
   + 17 x[85] + 43 x[86] + 75 x[87] + 9 x[88] + 90 x[89] + 3.1 r[0]
   + 4.7 r[1] + 2.5 r[2] + 5.8 r[3] + 6.7 r[4] + 3.7 r[5] + 9.2 r[6]
   + 9.9 r[7] + 2.8 r[8] + 8.9 r[9] + 1.9 r[10] + 3.8 r[11] + 1.5 r[12]
   + 4.3 r[13] + 8.4 r[14] + 0.8 r[15] + 9.6 r[16] + 5.9 r[17] + 8.8 r[18]
   + 4.9 r[19] + 7.6 r[20] + 5.9 r[21] + 4.3 r[22] + 1.8 r[23] + 0.4 r[24]
   + 4.3 r[25] + 3.7 r[26] + 4.3 r[27] + 3.3 r[28] + r[29] + 4.9 r[30]
   + 7.1 r[31] + 5.5 r[32] + 7.6 r[33] + 8.3 r[34] + 3.6 r[35] + 2.7 r[36]
   + 4.8 r[37] + 4.3 r[38] + 9.8 r[39] + 6.2 r[40] + 5.3 r[41] + 6.5 r[42]
   + 1.7 r[43] + 6.2 r[44] + 5 r[45] + 1.3 r[46] + 7.3 r[47] + 5 r[48]
   + 2.7 r[49] + 3 r[50] + 5.5 r[51] + 2 r[52] + 3.9 r[53] + 1.6 r[54]
   + 7.1 r[55] + 6.8 r[56] + 9.4 r[57] + 2.7 r[58] + 7.7 r[59] + 4.4 r[60]
   + r[61] + 0.7 r[62] + 5.8 r[63] + 4.3 r[64] + 3.1 r[65] + 7.6 r[66]
   + 5.4 r[67] + 3.5 r[68] + 9.3 r[69] + 5.7 r[70] + 7.3 r[71] + 5.3 r[72]
   + 6.2 r[73] + 3.5 r[74] + 1.6 r[75] + 5.4 r[76] + 7 r[77] + 5.6 r[78]
   + 3 r[79] + 9.3 r[80] + 8.9 r[81] + 6.6 r[82] + 1.7 r[83] + 9.7 r[84]
   + 1.7 r[85] + 4.3 r[86] + 7.5 r[87] + 0.9 r[88] + 9 r[89] <= 432
 primal_lower: 2.055028282241807 x[0] + 1.378541752210762 x[1]
   + 4.251054508687347 x[2] + 4.115660094108048 x[3]
   + 1.028308601718937 x[4] + 4.808154114171888 x[5]
   + 2.542044712722824 x[6] + 1.070528500495166 x[7]
   + 1.339112538783788 x[8] + 0.4822547069870252 x[9]
   + 5.027691160959134 x[10] + 4.623413028599796 x[11]
   + 1.089603604755601 x[12] + 3.130175671635668 x[13]
   + 2.299365668321316 x[14] + 1.799307273631779 x[15]
   + 0.2011589225869945 x[16] + 5.048721568908936 x[17]
   + 0.9294769566477866 x[18] + 2.898341073813344 x[19]
   + 1.748685516831836 x[20] + 0.3239356569326419 x[21]
   + 4.933368046294785 x[22] + 1.812888252598878 x[23]
   + 0.1249068111083989 x[24] + 3.727103943900764 x[25]
   + 0.3623141253532294 x[26] + 0.5604105319578702 x[27]
   + 0.7655743048340772 x[28] + 0.7362831573665727 x[29]
   + 4.997556213257395 x[30] + 0.6168648220238562 x[31]
   + 3.527345008000466 x[32] + 0.1572130671931597 x[33]
   + 3.975106250569863 x[34] + 0.2265798499377173 x[35]
   + 4.855968399650352 x[36] + 3.959719784548529 x[37]
   + 1.038005793952579 x[38] + 0.2976741015686007 x[39]
   + 2.455798026419918 x[40] + 4.839453191716586 x[41]
   + 3.451417862896411 x[42] + 2.429437204187191 x[43]
   + 0.5298607513826219 x[44] + 1.539654107729574 x[45]
   + 0.527386025813285 x[46] + 0.3404375379424509 x[47]
   + 4.886859677960364 x[48] + 2.684934276221296 x[49]
   + 1.209672225424174 x[50] + 0.3562285725632067 x[51]
   + 2.930657454263654 x[52] + 2.226000217257642 x[53]
   + 2.577840307972167 x[54] + 5.156434329635492 x[55]
   + 1.836666783936226 x[56] + 1.035274550013046 x[57]
   + 0.2564262532972919 x[58] + 4.85511122503107 x[59]
   + 4.580899997288142 x[60] + 4.06293100712543 x[61]
   + 1.319489623904416 x[62] + 0.8770999351648761 x[63]
   + 3.212256846948454 x[64] + 2.098738609558234 x[65]
   + 2.788095416582673 x[66] + 2.161759083161817 x[67]
   + 4.862101120475461 x[68] + 1.351544962243498 x[69]
   + 2.635808869144502 x[70] + 3.81807682927745 x[71]
   + 0.6178352380675471 x[72] + 1.622684020260452 x[73]
   + 3.53674947638295 x[74] + 4.940396136834573 x[75]
   + 4.59973476692933 x[76] + 0.1610040076423055 x[77]
   + 2.282181539160818 x[78] + 3.119300685597585 x[79]
   + 0.3792843894364256 x[80] + 1.941820067743086 x[81]
   + 1.962351980402253 x[82] + 1.406995153026182 x[83]
   + 1.237866578814985 x[84] + 4.592162792450545 x[85]
   + 0.3569956873419162 x[86] + 3.398118777549588 x[87]
   + 3.348376086321197 x[88] + 4.28801217767431 x[89] + 90 u[0] + 82 u[1]
   + 44 u[2] + 33 u[3] + 90 u[4] + 72 u[5] + 7 u[6] + 94 u[7] + 51 u[8]
   + 20 u[9] + 94 u[10] + 25 u[11] + 74 u[12] + 42 u[13] + 23 u[14]
   + 3 u[15] + 91 u[16] + 26 u[17] + 3 u[18] + 84 u[19] + 67 u[20]
   + 10 u[21] + 38 u[22] + 77 u[23] + 63 u[24] + 98 u[25] + 28 u[26]
   + 82 u[27] + 92 u[28] + 45 u[29] + 36 u[30] + 62 u[31] + 86 u[32]
   + 87 u[33] + 26 u[34] + 43 u[35] + 86 u[36] + 11 u[37] + 38 u[38]
   + 81 u[39] + 93 u[40] + 28 u[41] + 16 u[42] + 52 u[43] + 17 u[44]
   + 81 u[45] + 44 u[46] + 52 u[47] + 41 u[48] + 42 u[49] + 69 u[50]
   + 38 u[51] + 83 u[52] + 98 u[53] + 15 u[54] + 74 u[55] + 3 u[56]
   + 81 u[57] + 82 u[58] + 76 u[59] + 75 u[60] + 61 u[61] + 2 u[62]
   + 97 u[63] + 46 u[64] + 82 u[65] + 95 u[66] + 13 u[67] + 26 u[68]
   + 72 u[69] + 84 u[70] + 12 u[71] + 76 u[72] + 5 u[73] + 18 u[74]
   + 87 u[75] + 29 u[76] + 41 u[77] + 23 u[78] + 81 u[79] + 40 u[80]
   + 36 u[81] + 89 u[82] + 20 u[83] + 8 u[84] + 100 u[85] + 94 u[86]
   + 86 u[87] + 80 u[88] + 21 u[89] <= 24942
 mccormick1[0]: - u[0] + r[0] <= 0
 mccormick1[1]: - u[1] + r[1] <= 0
 mccormick1[2]: - u[2] + r[2] <= 0
 mccormick1[3]: - u[3] + r[3] <= 0
 mccormick1[4]: - u[4] + r[4] <= 0
 mccormick1[5]: - u[5] + r[5] <= 0
 mccormick1[6]: - u[6] + r[6] <= 0
 mccormick1[7]: - u[7] + r[7] <= 0
 mccormick1[8]: - u[8] + r[8] <= 0
 mccormick1[9]: - u[9] + r[9] <= 0
 mccormick1[10]: - u[10] + r[10] <= 0
 mccormick1[11]: - u[11] + r[11] <= 0
 mccormick1[12]: - u[12] + r[12] <= 0
 mccormick1[13]: - u[13] + r[13] <= 0
 mccormick1[14]: - u[14] + r[14] <= 0
 mccormick1[15]: - u[15] + r[15] <= 0
 mccormick1[16]: - u[16] + r[16] <= 0
 mccormick1[17]: - u[17] + r[17] <= 0
 mccormick1[18]: - u[18] + r[18] <= 0
 mccormick1[19]: - u[19] + r[19] <= 0
 mccormick1[20]: - u[20] + r[20] <= 0
 mccormick1[21]: - u[21] + r[21] <= 0
 mccormick1[22]: - u[22] + r[22] <= 0
 mccormick1[23]: - u[23] + r[23] <= 0
 mccormick1[24]: - u[24] + r[24] <= 0
 mccormick1[25]: - u[25] + r[25] <= 0
 mccormick1[26]: - u[26] + r[26] <= 0
 mccormick1[27]: - u[27] + r[27] <= 0
 mccormick1[28]: - u[28] + r[28] <= 0
 mccormick1[29]: - u[29] + r[29] <= 0
 mccormick1[30]: - u[30] + r[30] <= 0
 mccormick1[31]: - u[31] + r[31] <= 0
 mccormick1[32]: - u[32] + r[32] <= 0
 mccormick1[33]: - u[33] + r[33] <= 0
 mccormick1[34]: - u[34] + r[34] <= 0
 mccormick1[35]: - u[35] + r[35] <= 0
 mccormick1[36]: - u[36] + r[36] <= 0
 mccormick1[37]: - u[37] + r[37] <= 0
 mccormick1[38]: - u[38] + r[38] <= 0
 mccormick1[39]: - u[39] + r[39] <= 0
 mccormick1[40]: - u[40] + r[40] <= 0
 mccormick1[41]: - u[41] + r[41] <= 0
 mccormick1[42]: - u[42] + r[42] <= 0
 mccormick1[43]: - u[43] + r[43] <= 0
 mccormick1[44]: - u[44] + r[44] <= 0
 mccormick1[45]: - u[45] + r[45] <= 0
 mccormick1[46]: - u[46] + r[46] <= 0
 mccormick1[47]: - u[47] + r[47] <= 0
 mccormick1[48]: - u[48] + r[48] <= 0
 mccormick1[49]: - u[49] + r[49] <= 0
 mccormick1[50]: - u[50] + r[50] <= 0
 mccormick1[51]: - u[51] + r[51] <= 0
 mccormick1[52]: - u[52] + r[52] <= 0
 mccormick1[53]: - u[53] + r[53] <= 0
 mccormick1[54]: - u[54] + r[54] <= 0
 mccormick1[55]: - u[55] + r[55] <= 0
 mccormick1[56]: - u[56] + r[56] <= 0
 mccormick1[57]: - u[57] + r[57] <= 0
 mccormick1[58]: - u[58] + r[58] <= 0
 mccormick1[59]: - u[59] + r[59] <= 0
 mccormick1[60]: - u[60] + r[60] <= 0
 mccormick1[61]: - u[61] + r[61] <= 0
 mccormick1[62]: - u[62] + r[62] <= 0
 mccormick1[63]: - u[63] + r[63] <= 0
 mccormick1[64]: - u[64] + r[64] <= 0
 mccormick1[65]: - u[65] + r[65] <= 0
 mccormick1[66]: - u[66] + r[66] <= 0
 mccormick1[67]: - u[67] + r[67] <= 0
 mccormick1[68]: - u[68] + r[68] <= 0
 mccormick1[69]: - u[69] + r[69] <= 0
 mccormick1[70]: - u[70] + r[70] <= 0
 mccormick1[71]: - u[71] + r[71] <= 0
 mccormick1[72]: - u[72] + r[72] <= 0
 mccormick1[73]: - u[73] + r[73] <= 0
 mccormick1[74]: - u[74] + r[74] <= 0
 mccormick1[75]: - u[75] + r[75] <= 0
 mccormick1[76]: - u[76] + r[76] <= 0
 mccormick1[77]: - u[77] + r[77] <= 0
 mccormick1[78]: - u[78] + r[78] <= 0
 mccormick1[79]: - u[79] + r[79] <= 0
 mccormick1[80]: - u[80] + r[80] <= 0
 mccormick1[81]: - u[81] + r[81] <= 0
 mccormick1[82]: - u[82] + r[82] <= 0
 mccormick1[83]: - u[83] + r[83] <= 0
 mccormick1[84]: - u[84] + r[84] <= 0
 mccormick1[85]: - u[85] + r[85] <= 0
 mccormick1[86]: - u[86] + r[86] <= 0
 mccormick1[87]: - u[87] + r[87] <= 0
 mccormick1[88]: - u[88] + r[88] <= 0
 mccormick1[89]: - u[89] + r[89] <= 0
 mccormick2[0]: - x[0] + r[0] <= 0
 mccormick2[1]: - x[1] + r[1] <= 0
 mccormick2[2]: - x[2] + r[2] <= 0
 mccormick2[3]: - x[3] + r[3] <= 0
 mccormick2[4]: - x[4] + r[4] <= 0
 mccormick2[5]: - x[5] + r[5] <= 0
 mccormick2[6]: - x[6] + r[6] <= 0
 mccormick2[7]: - x[7] + r[7] <= 0
 mccormick2[8]: - x[8] + r[8] <= 0
 mccormick2[9]: - x[9] + r[9] <= 0
 mccormick2[10]: - x[10] + r[10] <= 0
 mccormick2[11]: - x[11] + r[11] <= 0
 mccormick2[12]: - x[12] + r[12] <= 0
 mccormick2[13]: - x[13] + r[13] <= 0
 mccormick2[14]: - x[14] + r[14] <= 0
 mccormick2[15]: - x[15] + r[15] <= 0
 mccormick2[16]: - x[16] + r[16] <= 0
 mccormick2[17]: - x[17] + r[17] <= 0
 mccormick2[18]: - x[18] + r[18] <= 0
 mccormick2[19]: - x[19] + r[19] <= 0
 mccormick2[20]: - x[20] + r[20] <= 0
 mccormick2[21]: - x[21] + r[21] <= 0
 mccormick2[22]: - x[22] + r[22] <= 0
 mccormick2[23]: - x[23] + r[23] <= 0
 mccormick2[24]: - x[24] + r[24] <= 0
 mccormick2[25]: - x[25] + r[25] <= 0
 mccormick2[26]: - x[26] + r[26] <= 0
 mccormick2[27]: - x[27] + r[27] <= 0
 mccormick2[28]: - x[28] + r[28] <= 0
 mccormick2[29]: - x[29] + r[29] <= 0
 mccormick2[30]: - x[30] + r[30] <= 0
 mccormick2[31]: - x[31] + r[31] <= 0
 mccormick2[32]: - x[32] + r[32] <= 0
 mccormick2[33]: - x[33] + r[33] <= 0
 mccormick2[34]: - x[34] + r[34] <= 0
 mccormick2[35]: - x[35] + r[35] <= 0
 mccormick2[36]: - x[36] + r[36] <= 0
 mccormick2[37]: - x[37] + r[37] <= 0
 mccormick2[38]: - x[38] + r[38] <= 0
 mccormick2[39]: - x[39] + r[39] <= 0
 mccormick2[40]: - x[40] + r[40] <= 0
 mccormick2[41]: - x[41] + r[41] <= 0
 mccormick2[42]: - x[42] + r[42] <= 0
 mccormick2[43]: - x[43] + r[43] <= 0
 mccormick2[44]: - x[44] + r[44] <= 0
 mccormick2[45]: - x[45] + r[45] <= 0
 mccormick2[46]: - x[46] + r[46] <= 0
 mccormick2[47]: - x[47] + r[47] <= 0
 mccormick2[48]: - x[48] + r[48] <= 0
 mccormick2[49]: - x[49] + r[49] <= 0
 mccormick2[50]: - x[50] + r[50] <= 0
 mccormick2[51]: - x[51] + r[51] <= 0
 mccormick2[52]: - x[52] + r[52] <= 0
 mccormick2[53]: - x[53] + r[53] <= 0
 mccormick2[54]: - x[54] + r[54] <= 0
 mccormick2[55]: - x[55] + r[55] <= 0
 mccormick2[56]: - x[56] + r[56] <= 0
 mccormick2[57]: - x[57] + r[57] <= 0
 mccormick2[58]: - x[58] + r[58] <= 0
 mccormick2[59]: - x[59] + r[59] <= 0
 mccormick2[60]: - x[60] + r[60] <= 0
 mccormick2[61]: - x[61] + r[61] <= 0
 mccormick2[62]: - x[62] + r[62] <= 0
 mccormick2[63]: - x[63] + r[63] <= 0
 mccormick2[64]: - x[64] + r[64] <= 0
 mccormick2[65]: - x[65] + r[65] <= 0
 mccormick2[66]: - x[66] + r[66] <= 0
 mccormick2[67]: - x[67] + r[67] <= 0
 mccormick2[68]: - x[68] + r[68] <= 0
 mccormick2[69]: - x[69] + r[69] <= 0
 mccormick2[70]: - x[70] + r[70] <= 0
 mccormick2[71]: - x[71] + r[71] <= 0
 mccormick2[72]: - x[72] + r[72] <= 0
 mccormick2[73]: - x[73] + r[73] <= 0
 mccormick2[74]: - x[74] + r[74] <= 0
 mccormick2[75]: - x[75] + r[75] <= 0
 mccormick2[76]: - x[76] + r[76] <= 0
 mccormick2[77]: - x[77] + r[77] <= 0
 mccormick2[78]: - x[78] + r[78] <= 0
 mccormick2[79]: - x[79] + r[79] <= 0
 mccormick2[80]: - x[80] + r[80] <= 0
 mccormick2[81]: - x[81] + r[81] <= 0
 mccormick2[82]: - x[82] + r[82] <= 0
 mccormick2[83]: - x[83] + r[83] <= 0
 mccormick2[84]: - x[84] + r[84] <= 0
 mccormick2[85]: - x[85] + r[85] <= 0
 mccormick2[86]: - x[86] + r[86] <= 0
 mccormick2[87]: - x[87] + r[87] <= 0
 mccormick2[88]: - x[88] + r[88] <= 0
 mccormick2[89]: - x[89] + r[89] <= 0
 mccormick3[0]: x[0] + u[0] - r[0] <= 1
 mccormick3[1]: x[1] + u[1] - r[1] <= 1
 mccormick3[2]: x[2] + u[2] - r[2] <= 1
 mccormick3[3]: x[3] + u[3] - r[3] <= 1
 mccormick3[4]: x[4] + u[4] - r[4] <= 1
 mccormick3[5]: x[5] + u[5] - r[5] <= 1
 mccormick3[6]: x[6] + u[6] - r[6] <= 1
 mccormick3[7]: x[7] + u[7] - r[7] <= 1
 mccormick3[8]: x[8] + u[8] - r[8] <= 1
 mccormick3[9]: x[9] + u[9] - r[9] <= 1
 mccormick3[10]: x[10] + u[10] - r[10] <= 1
 mccormick3[11]: x[11] + u[11] - r[11] <= 1
 mccormick3[12]: x[12] + u[12] - r[12] <= 1
 mccormick3[13]: x[13] + u[13] - r[13] <= 1
 mccormick3[14]: x[14] + u[14] - r[14] <= 1
 mccormick3[15]: x[15] + u[15] - r[15] <= 1
 mccormick3[16]: x[16] + u[16] - r[16] <= 1
 mccormick3[17]: x[17] + u[17] - r[17] <= 1
 mccormick3[18]: x[18] + u[18] - r[18] <= 1
 mccormick3[19]: x[19] + u[19] - r[19] <= 1
 mccormick3[20]: x[20] + u[20] - r[20] <= 1
 mccormick3[21]: x[21] + u[21] - r[21] <= 1
 mccormick3[22]: x[22] + u[22] - r[22] <= 1
 mccormick3[23]: x[23] + u[23] - r[23] <= 1
 mccormick3[24]: x[24] + u[24] - r[24] <= 1
 mccormick3[25]: x[25] + u[25] - r[25] <= 1
 mccormick3[26]: x[26] + u[26] - r[26] <= 1
 mccormick3[27]: x[27] + u[27] - r[27] <= 1
 mccormick3[28]: x[28] + u[28] - r[28] <= 1
 mccormick3[29]: x[29] + u[29] - r[29] <= 1
 mccormick3[30]: x[30] + u[30] - r[30] <= 1
 mccormick3[31]: x[31] + u[31] - r[31] <= 1
 mccormick3[32]: x[32] + u[32] - r[32] <= 1
 mccormick3[33]: x[33] + u[33] - r[33] <= 1
 mccormick3[34]: x[34] + u[34] - r[34] <= 1
 mccormick3[35]: x[35] + u[35] - r[35] <= 1
 mccormick3[36]: x[36] + u[36] - r[36] <= 1
 mccormick3[37]: x[37] + u[37] - r[37] <= 1
 mccormick3[38]: x[38] + u[38] - r[38] <= 1
 mccormick3[39]: x[39] + u[39] - r[39] <= 1
 mccormick3[40]: x[40] + u[40] - r[40] <= 1
 mccormick3[41]: x[41] + u[41] - r[41] <= 1
 mccormick3[42]: x[42] + u[42] - r[42] <= 1
 mccormick3[43]: x[43] + u[43] - r[43] <= 1
 mccormick3[44]: x[44] + u[44] - r[44] <= 1
 mccormick3[45]: x[45] + u[45] - r[45] <= 1
 mccormick3[46]: x[46] + u[46] - r[46] <= 1
 mccormick3[47]: x[47] + u[47] - r[47] <= 1
 mccormick3[48]: x[48] + u[48] - r[48] <= 1
 mccormick3[49]: x[49] + u[49] - r[49] <= 1
 mccormick3[50]: x[50] + u[50] - r[50] <= 1
 mccormick3[51]: x[51] + u[51] - r[51] <= 1
 mccormick3[52]: x[52] + u[52] - r[52] <= 1
 mccormick3[53]: x[53] + u[53] - r[53] <= 1
 mccormick3[54]: x[54] + u[54] - r[54] <= 1
 mccormick3[55]: x[55] + u[55] - r[55] <= 1
 mccormick3[56]: x[56] + u[56] - r[56] <= 1
 mccormick3[57]: x[57] + u[57] - r[57] <= 1
 mccormick3[58]: x[58] + u[58] - r[58] <= 1
 mccormick3[59]: x[59] + u[59] - r[59] <= 1
 mccormick3[60]: x[60] + u[60] - r[60] <= 1
 mccormick3[61]: x[61] + u[61] - r[61] <= 1
 mccormick3[62]: x[62] + u[62] - r[62] <= 1
 mccormick3[63]: x[63] + u[63] - r[63] <= 1
 mccormick3[64]: x[64] + u[64] - r[64] <= 1
 mccormick3[65]: x[65] + u[65] - r[65] <= 1
 mccormick3[66]: x[66] + u[66] - r[66] <= 1
 mccormick3[67]: x[67] + u[67] - r[67] <= 1
 mccormick3[68]: x[68] + u[68] - r[68] <= 1
 mccormick3[69]: x[69] + u[69] - r[69] <= 1
 mccormick3[70]: x[70] + u[70] - r[70] <= 1
 mccormick3[71]: x[71] + u[71] - r[71] <= 1
 mccormick3[72]: x[72] + u[72] - r[72] <= 1
 mccormick3[73]: x[73] + u[73] - r[73] <= 1
 mccormick3[74]: x[74] + u[74] - r[74] <= 1
 mccormick3[75]: x[75] + u[75] - r[75] <= 1
 mccormick3[76]: x[76] + u[76] - r[76] <= 1
 mccormick3[77]: x[77] + u[77] - r[77] <= 1
 mccormick3[78]: x[78] + u[78] - r[78] <= 1
 mccormick3[79]: x[79] + u[79] - r[79] <= 1
 mccormick3[80]: x[80] + u[80] - r[80] <= 1
 mccormick3[81]: x[81] + u[81] - r[81] <= 1
 mccormick3[82]: x[82] + u[82] - r[82] <= 1
 mccormick3[83]: x[83] + u[83] - r[83] <= 1
 mccormick3[84]: x[84] + u[84] - r[84] <= 1
 mccormick3[85]: x[85] + u[85] - r[85] <= 1
 mccormick3[86]: x[86] + u[86] - r[86] <= 1
 mccormick3[87]: x[87] + u[87] - r[87] <= 1
 mccormick3[88]: x[88] + u[88] - r[88] <= 1
 mccormick3[89]: x[89] + u[89] - r[89] <= 1
Bounds
Binaries
 x[0] x[1] x[2] x[3] x[4] x[5] x[6] x[7] x[8] x[9] x[10] x[11] x[12] x[13]
 x[14] x[15] x[16] x[17] x[18] x[19] x[20] x[21] x[22] x[23] x[24] x[25]
 x[26] x[27] x[28] x[29] x[30] x[31] x[32] x[33] x[34] x[35] x[36] x[37]
 x[38] x[39] x[40] x[41] x[42] x[43] x[44] x[45] x[46] x[47] x[48] x[49]
 x[50] x[51] x[52] x[53] x[54] x[55] x[56] x[57] x[58] x[59] x[60] x[61]
 x[62] x[63] x[64] x[65] x[66] x[67] x[68] x[69] x[70] x[71] x[72] x[73]
 x[74] x[75] x[76] x[77] x[78] x[79] x[80] x[81] x[82] x[83] x[84] x[85]
 x[86] x[87] x[88] x[89] u[0] u[1] u[2] u[3] u[4] u[5] u[6] u[7] u[8] u[9]
 u[10] u[11] u[12] u[13] u[14] u[15] u[16] u[17] u[18] u[19] u[20] u[21]
 u[22] u[23] u[24] u[25] u[26] u[27] u[28] u[29] u[30] u[31] u[32] u[33]
 u[34] u[35] u[36] u[37] u[38] u[39] u[40] u[41] u[42] u[43] u[44] u[45]
 u[46] u[47] u[48] u[49] u[50] u[51] u[52] u[53] u[54] u[55] u[56] u[57]
 u[58] u[59] u[60] u[61] u[62] u[63] u[64] u[65] u[66] u[67] u[68] u[69]
 u[70] u[71] u[72] u[73] u[74] u[75] u[76] u[77] u[78] u[79] u[80] u[81]
 u[82] u[83] u[84] u[85] u[86] u[87] u[88] u[89] r[0] r[1] r[2] r[3] r[4]
 r[5] r[6] r[7] r[8] r[9] r[10] r[11] r[12] r[13] r[14] r[15] r[16] r[17]
 r[18] r[19] r[20] r[21] r[22] r[23] r[24] r[25] r[26] r[27] r[28] r[29]
 r[30] r[31] r[32] r[33] r[34] r[35] r[36] r[37] r[38] r[39] r[40] r[41]
 r[42] r[43] r[44] r[45] r[46] r[47] r[48] r[49] r[50] r[51] r[52] r[53]
 r[54] r[55] r[56] r[57] r[58] r[59] r[60] r[61] r[62] r[63] r[64] r[65]
 r[66] r[67] r[68] r[69] r[70] r[71] r[72] r[73] r[74] r[75] r[76] r[77]
 r[78] r[79] r[80] r[81] r[82] r[83] r[84] r[85] r[86] r[87] r[88] r[89]
End
