instances/knapsack/discrete/knapsack_90_13.kp
17528
90
432

31 3.1 45
47 4.7 42
25 2.5 35
58 5.8 27
67 6.7 69
37 3.7 84
92 9.2 77
99 9.9 35
28 2.8 34
89 8.9 18
19 1.9 90
38 3.8 46
15 1.5 58
43 4.3 21
84 8.4 70
8 0.8 99
96 9.6 1
59 5.9 69
88 8.8 38
49 4.9 1
76 7.6 93
59 5.9 22
43 4.3 59
18 1.8 39
4 0.4 100
43 4.3 66
37 3.7 11
43 4.3 43
33 3.3 61
10 1.0 32
49 4.9 60
71 7.1 19
55 5.5 31
76 7.6 18
83 8.3 3
36 3.6 72
27 2.7 72
48 4.8 34
43 4.3 54
98 9.8 83
62 6.2 39
53 5.3 37
65 6.5 89
17 1.7 46
62 6.2 86
50 5.0 6
13 1.3 16
73 7.3 40
50 5.0 64
27 2.7 17
30 3.0 38
55 5.5 10
20 2.0 50
39 3.9 80
16 1.6 55
71 7.1 57
68 6.8 98
94 9.4 39
27 2.7 31
77 7.7 98
44 4.4 55
10 1.0 77
7 0.7 21
58 5.8 73
43 4.3 66
31 3.1 52
76 7.6 60
54 5.4 45
35 3.5 8
93 9.3 89
57 5.7 52
73 7.3 98
53 5.3 36
62 6.2 77
35 3.5 90
16 1.6 49
54 5.4 73
70 7.0 100
56 5.6 27
30 3.0 55
93 9.3 30
89 8.9 89
66 6.6 81
17 1.7 13
97 9.7 96
17 1.7 100
43 4.3 33
75 7.5 2
9 0.9 87
90 9.0 94

24942
465

[2.0550282822418073 1.3785417522107624 4.251054508687347 4.115660094108048 1.028308601718937 4.808154114171888 2.5420447127228236 1.0705285004951663 1.339112538783788 0.4822547069870252 5.027691160959134 4.623413028599796 1.0896036047556006 3.130175671635668 2.2993656683213155 1.799307273631779 0.20115892258699453 5.0487215689089355 0.9294769566477866 2.8983410738133437 1.7486855168318356 0.32393565693264187 4.933368046294785 1.8128882525988779 0.12490681110839894 3.727103943900764 0.3623141253532294 0.5604105319578702 0.7655743048340772 0.7362831573665727 4.997556213257395 0.6168648220238562 3.527345008000466 0.15721306719315972 3.975106250569863 0.2265798499377173 4.855968399650352 3.9597197845485286 1.038005793952579 0.29767410156860075 2.455798026419918 4.8394531917165855 3.451417862896411 2.429437204187191 0.5298607513826219 1.539654107729574 0.527386025813285 0.34043753794245085 4.886859677960364 2.684934276221296 1.2096722254241739 0.3562285725632067 2.9306574542636543 2.2260002172576416 2.5778403079721666 5.156434329635492 1.8366667839362258 1.0352745500130462 0.2564262532972919 4.85511122503107 4.580899997288142 4.06293100712543 1.3194896239044165 0.877099935164876 3.2122568469484545 2.098738609558234 2.788095416582673 2.161759083161817 4.862101120475461 1.351544962243498 2.6358088691445016 3.81807682927745 0.6178352380675471 1.6226840202604524 3.53674947638295 4.940396136834573 4.5997347669293305 0.16100400764230546 2.282181539160818 3.119300685597585 0.3792843894364256 1.9418200677430857 1.9623519804022531 1.406995153026182 1.2378665788149847 4.592162792450545 0.3569956873419162 3.3981187775495876 3.348376086321197 4.28801217767431]

[90 82 44 33 90 72 7 94 51 20 94 25 74 42 23 3 91 26 3 84 67 10 38 77 63 98 28 82 92 45 36 62 86 87 26 43 86 11 38 81 93 28 16 52 17 81 44 52 41 42 69 38 83 98 15 74 3 81 82 76 75 61 2 97 46 82 95 13 26 72 84 12 76 5 18 87 29 41 23 81 40 36 89 20 8 100 94 86 80 21]
